50 1225
1 2 3
1 3 2
1 4 4
1 5 4
1 6 5
1 7 2
1 8 4
1 9 5
1 10 2
1 11 4
1 12 5
1 13 1
1 14 5
1 15 2
1 16 5
1 17 2
1 18 3
1 19 4
1 20 3
1 21 3
1 22 3
1 23 1
1 24 1
1 25 4
1 26 2
1 27 3
1 28 3
1 29 2
1 30 3
1 31 5
1 32 4
1 33 4
1 34 2
1 35 4
1 36 2
1 37 4
1 38 5
1 39 3
1 40 2
1 41 5
1 42 3
1 43 5
1 44 4
1 45 3
1 46 2
1 47 5
1 48 1
1 49 3
1 50 3
2 3 1
2 4 4
2 5 1
2 6 1
2 7 1
2 8 5
2 9 1
2 10 5
2 11 3
2 12 3
2 13 4
2 14 3
2 15 4
2 16 1
2 17 3
2 18 5
2 19 3
2 20 3
2 21 4
2 22 5
2 23 4
2 24 2
2 25 4
2 26 4
2 27 4
2 28 3
2 29 5
2 30 1
2 31 4
2 32 4
2 33 2
2 34 5
2 35 3
2 36 3
2 37 2
2 38 3
2 39 3
2 40 5
2 41 5
2 42 1
2 43 2
2 44 1
2 45 2
2 46 5
2 47 1
2 48 4
2 49 4
2 50 4
3 4 3
3 5 4
3 6 1
3 7 3
3 8 2
3 9 3
3 10 3
3 11 4
3 12 5
3 13 2
3 14 4
3 15 2
3 16 3
3 17 2
3 18 4
3 19 4
3 20 5
3 21 2
3 22 3
3 23 2
3 24 5
3 25 3
3 26 1
3 27 5
3 28 4
3 29 2
3 30 1
3 31 4
3 32 3
3 33 1
3 34 4
3 35 2
3 36 2
3 37 1
3 38 4
3 39 4
3 40 2
3 41 4
3 42 3
3 43 1
3 44 3
3 45 4
3 46 3
3 47 1
3 48 3
3 49 1
3 50 5
4 5 2
4 6 3
4 7 4
4 8 5
4 9 5
4 10 3
4 11 4
4 12 2
4 13 4
4 14 5
4 15 1
4 16 3
4 17 3
4 18 1
4 19 5
4 20 3
4 21 3
4 22 2
4 23 2
4 24 4
4 25 2
4 26 2
4 27 1
4 28 2
4 29 5
4 30 5
4 31 3
4 32 5
4 33 2
4 34 5
4 35 1
4 36 1
4 37 5
4 38 4
4 39 5
4 40 1
4 41 2
4 42 1
4 43 4
4 44 2
4 45 4
4 46 2
4 47 5
4 48 1
4 49 3
4 50 2
5 6 3
5 7 3
5 8 1
5 9 4
5 10 2
5 11 1
5 12 5
5 13 1
5 14 1
5 15 3
5 16 2
5 17 3
5 18 1
5 19 4
5 20 2
5 21 1
5 22 5
5 23 2
5 24 3
5 25 4
5 26 5
5 27 1
5 28 2
5 29 4
5 30 5
5 31 2
5 32 4
5 33 3
5 34 4
5 35 2
5 36 2
5 37 4
5 38 2
5 39 3
5 40 5
5 41 5
5 42 1
5 43 3
5 44 3
5 45 3
5 46 3
5 47 1
5 48 2
5 49 4
5 50 5
6 7 5
6 8 4
6 9 5
6 10 1
6 11 4
6 12 5
6 13 5
6 14 5
6 15 5
6 16 4
6 17 4
6 18 5
6 19 3
6 20 4
6 21 2
6 22 5
6 23 1
6 24 4
6 25 3
6 26 5
6 27 5
6 28 1
6 29 3
6 30 4
6 31 4
6 32 3
6 33 3
6 34 3
6 35 4
6 36 1
6 37 3
6 38 5
6 39 5
6 40 4
6 41 5
6 42 2
6 43 1
6 44 4
6 45 1
6 46 2
6 47 5
6 48 1
6 49 2
6 50 1
7 8 5
7 9 2
7 10 2
7 11 3
7 12 4
7 13 3
7 14 4
7 15 5
7 16 2
7 17 2
7 18 1
7 19 5
7 20 2
7 21 5
7 22 1
7 23 4
7 24 5
7 25 2
7 26 2
7 27 4
7 28 3
7 29 1
7 30 1
7 31 1
7 32 2
7 33 3
7 34 1
7 35 4
7 36 5
7 37 3
7 38 5
7 39 1
7 40 3
7 41 5
7 42 5
7 43 5
7 44 3
7 45 1
7 46 2
7 47 5
7 48 4
7 49 5
7 50 2
8 9 1
8 10 3
8 11 4
8 12 3
8 13 3
8 14 4
8 15 4
8 16 1
8 17 2
8 18 3
8 19 3
8 20 1
8 21 2
8 22 2
8 23 1
8 24 2
8 25 1
8 26 2
8 27 4
8 28 5
8 29 4
8 30 2
8 31 4
8 32 3
8 33 5
8 34 1
8 35 2
8 36 2
8 37 5
8 38 1
8 39 1
8 40 5
8 41 2
8 42 1
8 43 3
8 44 4
8 45 1
8 46 1
8 47 2
8 48 5
8 49 3
8 50 3
9 10 4
9 11 1
9 12 4
9 13 3
9 14 4
9 15 3
9 16 2
9 17 5
9 18 3
9 19 3
9 20 2
9 21 5
9 22 4
9 23 3
9 24 5
9 25 4
9 26 1
9 27 1
9 28 3
9 29 5
9 30 1
9 31 4
9 32 3
9 33 4
9 34 5
9 35 1
9 36 3
9 37 3
9 38 5
9 39 3
9 40 2
9 41 5
9 42 5
9 43 5
9 44 4
9 45 2
9 46 4
9 47 2
9 48 5
9 49 1
9 50 3
10 11 5
10 12 4
10 13 4
10 14 4
10 15 3
10 16 4
10 17 3
10 18 3
10 19 3
10 20 4
10 21 4
10 22 1
10 23 1
10 24 5
10 25 4
10 26 1
10 27 4
10 28 4
10 29 2
10 30 4
10 31 2
10 32 4
10 33 1
10 34 2
10 35 5
10 36 2
10 37 3
10 38 1
10 39 4
10 40 4
10 41 4
10 42 3
10 43 3
10 44 2
10 45 5
10 46 1
10 47 4
10 48 1
10 49 1
10 50 2
11 12 1
11 13 3
11 14 1
11 15 2
11 16 5
11 17 4
11 18 5
11 19 5
11 20 1
11 21 2
11 22 1
11 23 5
11 24 2
11 25 3
11 26 5
11 27 3
11 28 3
11 29 4
11 30 5
11 31 2
11 32 2
11 33 1
11 34 1
11 35 3
11 36 4
11 37 5
11 38 3
11 39 3
11 40 2
11 41 1
11 42 2
11 43 2
11 44 5
11 45 3
11 46 5
11 47 2
11 48 1
11 49 2
11 50 3
12 13 4
12 14 3
12 15 3
12 16 1
12 17 1
12 18 1
12 19 4
12 20 2
12 21 2
12 22 1
12 23 1
12 24 3
12 25 3
12 26 2
12 27 3
12 28 1
12 29 2
12 30 3
12 31 1
12 32 4
12 33 4
12 34 2
12 35 3
12 36 5
12 37 4
12 38 4
12 39 2
12 40 4
12 41 5
12 42 1
12 43 4
12 44 4
12 45 1
12 46 3
12 47 1
12 48 1
12 49 3
12 50 2
13 14 2
13 15 2
13 16 1
13 17 4
13 18 4
13 19 2
13 20 1
13 21 5
13 22 1
13 23 4
13 24 3
13 25 3
13 26 4
13 27 4
13 28 3
13 29 5
13 30 3
13 31 1
13 32 1
13 33 4
13 34 4
13 35 4
13 36 1
13 37 2
13 38 2
13 39 1
13 40 1
13 41 5
13 42 5
13 43 3
13 44 5
13 45 2
13 46 1
13 47 4
13 48 3
13 49 3
13 50 2
14 15 2
14 16 1
14 17 5
14 18 3
14 19 5
14 20 3
14 21 3
14 22 4
14 23 2
14 24 1
14 25 4
14 26 4
14 27 5
14 28 2
14 29 2
14 30 2
14 31 2
14 32 3
14 33 3
14 34 3
14 35 5
14 36 3
14 37 1
14 38 2
14 39 1
14 40 2
14 41 4
14 42 4
14 43 3
14 44 2
14 45 1
14 46 1
14 47 2
14 48 3
14 49 1
14 50 2
15 16 5
15 17 2
15 18 3
15 19 4
15 20 4
15 21 1
15 22 2
15 23 3
15 24 1
15 25 2
15 26 1
15 27 4
15 28 4
15 29 5
15 30 3
15 31 1
15 32 1
15 33 4
15 34 1
15 35 3
15 36 1
15 37 1
15 38 2
15 39 1
15 40 1
15 41 4
15 42 1
15 43 3
15 44 2
15 45 4
15 46 1
15 47 3
15 48 1
15 49 5
15 50 5
16 17 3
16 18 3
16 19 2
16 20 3
16 21 1
16 22 1
16 23 3
16 24 3
16 25 5
16 26 2
16 27 1
16 28 4
16 29 1
16 30 5
16 31 3
16 32 4
16 33 3
16 34 1
16 35 4
16 36 1
16 37 1
16 38 5
16 39 1
16 40 5
16 41 4
16 42 2
16 43 1
16 44 1
16 45 5
16 46 3
16 47 3
16 48 2
16 49 5
16 50 3
17 18 2
17 19 4
17 20 1
17 21 4
17 22 1
17 23 3
17 24 4
17 25 5
17 26 4
17 27 2
17 28 4
17 29 1
17 30 5
17 31 5
17 32 4
17 33 1
17 34 1
17 35 2
17 36 2
17 37 4
17 38 4
17 39 4
17 40 1
17 41 1
17 42 1
17 43 5
17 44 5
17 45 2
17 46 3
17 47 2
17 48 3
17 49 2
17 50 5
18 19 4
18 20 1
18 21 5
18 22 1
18 23 4
18 24 2
18 25 4
18 26 4
18 27 5
18 28 1
18 29 3
18 30 4
18 31 1
18 32 3
18 33 1
18 34 2
18 35 5
18 36 2
18 37 4
18 38 4
18 39 3
18 40 1
18 41 4
18 42 2
18 43 1
18 44 1
18 45 1
18 46 3
18 47 4
18 48 2
18 49 2
18 50 1
19 20 5
19 21 1
19 22 1
19 23 2
19 24 5
19 25 2
19 26 1
19 27 3
19 28 4
19 29 2
19 30 3
19 31 3
19 32 5
19 33 4
19 34 1
19 35 3
19 36 5
19 37 5
19 38 3
19 39 2
19 40 4
19 41 5
19 42 5
19 43 3
19 44 1
19 45 3
19 46 3
19 47 1
19 48 4
19 49 4
19 50 3
20 21 3
20 22 4
20 23 5
20 24 4
20 25 5
20 26 2
20 27 2
20 28 4
20 29 4
20 30 5
20 31 1
20 32 4
20 33 3
20 34 3
20 35 1
20 36 1
20 37 4
20 38 3
20 39 2
20 40 4
20 41 3
20 42 3
20 43 1
20 44 5
20 45 1
20 46 3
20 47 2
20 48 1
20 49 4
20 50 4
21 22 1
21 23 4
21 24 2
21 25 2
21 26 1
21 27 5
21 28 5
21 29 5
21 30 4
21 31 5
21 32 4
21 33 5
21 34 2
21 35 1
21 36 4
21 37 3
21 38 1
21 39 3
21 40 5
21 41 1
21 42 5
21 43 1
21 44 5
21 45 5
21 46 3
21 47 2
21 48 3
21 49 4
21 50 2
22 23 5
22 24 2
22 25 3
22 26 2
22 27 1
22 28 2
22 29 5
22 30 5
22 31 4
22 32 2
22 33 4
22 34 5
22 35 4
22 36 3
22 37 5
22 38 1
22 39 5
22 40 4
22 41 3
22 42 5
22 43 2
22 44 2
22 45 3
22 46 5
22 47 3
22 48 1
22 49 3
22 50 1
23 24 5
23 25 4
23 26 4
23 27 3
23 28 5
23 29 5
23 30 5
23 31 3
23 32 2
23 33 5
23 34 1
23 35 4
23 36 1
23 37 4
23 38 3
23 39 5
23 40 5
23 41 2
23 42 4
23 43 5
23 44 3
23 45 3
23 46 3
23 47 3
23 48 2
23 49 2
23 50 1
24 25 4
24 26 5
24 27 4
24 28 5
24 29 5
24 30 2
24 31 2
24 32 1
24 33 4
24 34 4
24 35 5
24 36 3
24 37 3
24 38 4
24 39 3
24 40 5
24 41 2
24 42 5
24 43 2
24 44 4
24 45 2
24 46 4
24 47 3
24 48 4
24 49 3
24 50 4
25 26 5
25 27 2
25 28 5
25 29 3
25 30 2
25 31 5
25 32 3
25 33 5
25 34 2
25 35 1
25 36 1
25 37 2
25 38 4
25 39 1
25 40 5
25 41 4
25 42 5
25 43 1
25 44 2
25 45 5
25 46 2
25 47 5
25 48 2
25 49 4
25 50 5
26 27 2
26 28 1
26 29 2
26 30 5
26 31 3
26 32 5
26 33 1
26 34 1
26 35 3
26 36 1
26 37 3
26 38 4
26 39 4
26 40 4
26 41 5
26 42 3
26 43 5
26 44 4
26 45 2
26 46 2
26 47 3
26 48 5
26 49 1
26 50 2
27 28 5
27 29 2
27 30 1
27 31 5
27 32 1
27 33 2
27 34 1
27 35 4
27 36 3
27 37 1
27 38 5
27 39 2
27 40 1
27 41 1
27 42 3
27 43 3
27 44 2
27 45 4
27 46 4
27 47 5
27 48 5
27 49 2
27 50 4
28 29 1
28 30 1
28 31 4
28 32 1
28 33 3
28 34 4
28 35 3
28 36 2
28 37 2
28 38 4
28 39 4
28 40 3
28 41 3
28 42 2
28 43 4
28 44 1
28 45 1
28 46 4
28 47 5
28 48 1
28 49 2
28 50 2
29 30 3
29 31 3
29 32 5
29 33 4
29 34 2
29 35 4
29 36 2
29 37 4
29 38 1
29 39 4
29 40 1
29 41 4
29 42 2
29 43 5
29 44 2
29 45 1
29 46 4
29 47 5
29 48 5
29 49 3
29 50 4
30 31 1
30 32 1
30 33 5
30 34 3
30 35 3
30 36 1
30 37 3
30 38 2
30 39 3
30 40 4
30 41 5
30 42 5
30 43 5
30 44 5
30 45 3
30 46 2
30 47 4
30 48 1
30 49 3
30 50 1
31 32 2
31 33 1
31 34 3
31 35 2
31 36 3
31 37 3
31 38 2
31 39 5
31 40 4
31 41 4
31 42 2
31 43 2
31 44 4
31 45 3
31 46 4
31 47 1
31 48 5
31 49 2
31 50 5
32 33 1
32 34 4
32 35 2
32 36 1
32 37 3
32 38 2
32 39 3
32 40 4
32 41 1
32 42 4
32 43 3
32 44 2
32 45 5
32 46 2
32 47 2
32 48 3
32 49 2
32 50 3
33 34 5
33 35 4
33 36 5
33 37 4
33 38 2
33 39 1
33 40 4
33 41 5
33 42 4
33 43 5
33 44 5
33 45 4
33 46 4
33 47 1
33 48 1
33 49 4
33 50 2
34 35 4
34 36 4
34 37 4
34 38 2
34 39 1
34 40 4
34 41 5
34 42 5
34 43 3
34 44 2
34 45 3
34 46 2
34 47 5
34 48 1
34 49 4
34 50 4
35 36 2
35 37 3
35 38 5
35 39 3
35 40 4
35 41 3
35 42 4
35 43 5
35 44 3
35 45 2
35 46 1
35 47 3
35 48 5
35 49 2
35 50 1
36 37 2
36 38 4
36 39 1
36 40 4
36 41 1
36 42 5
36 43 3
36 44 5
36 45 1
36 46 4
36 47 5
36 48 4
36 49 4
36 50 2
37 38 4
37 39 4
37 40 2
37 41 3
37 42 1
37 43 1
37 44 2
37 45 1
37 46 5
37 47 3
37 48 5
37 49 1
37 50 3
38 39 5
38 40 3
38 41 4
38 42 1
38 43 5
38 44 1
38 45 4
38 46 5
38 47 1
38 48 4
38 49 5
38 50 2
39 40 5
39 41 3
39 42 5
39 43 1
39 44 4
39 45 1
39 46 4
39 47 3
39 48 5
39 49 2
39 50 1
40 41 1
40 42 2
40 43 1
40 44 4
40 45 2
40 46 2
40 47 2
40 48 2
40 49 2
40 50 2
41 42 2
41 43 5
41 44 4
41 45 4
41 46 3
41 47 2
41 48 4
41 49 5
41 50 5
42 43 1
42 44 3
42 45 5
42 46 1
42 47 3
42 48 3
42 49 2
42 50 4
43 44 3
43 45 3
43 46 1
43 47 4
43 48 5
43 49 3
43 50 2
44 45 5
44 46 3
44 47 1
44 48 4
44 49 1
44 50 4
45 46 5
45 47 2
45 48 3
45 49 1
45 50 1
46 47 5
46 48 5
46 49 5
46 50 5
47 48 1
47 49 1
47 50 3
48 49 4
48 50 1
49 50 5
